! r2SCAN-3c TightSCF COSMORS(Water)

* xyzfile 0 1 nonanoic.xyz
