!BP86 def2-TZVPD CPCM
%maxcore 4096
%cpcm
cut_area   0.035700
cosmorscalc true
end
*xyz 0 1
  C      -4.211615      0.245841      0.799462
  C      -3.687090     -0.836777     -0.143321
  C      -2.152343     -0.898577     -0.179947
  C      -1.529214      0.332835     -0.860620
  C      -0.026358      0.160382     -1.132258
  C       0.810966      0.162666      0.155446
  C       2.310020      0.120699     -0.164514
  C       3.146107      0.111733      1.118531
  C       4.605449      0.076828      0.792021
  O       5.197645     -1.027925      0.662558
  O       5.298318      1.265925      0.587860
  H      -3.782427      0.117664      1.815904
  H      -3.959682      1.256175      0.415836
  H      -5.317034      0.168914      0.870626
  H      -4.069792     -1.819718      0.207493
  H      -4.088314     -0.666547     -1.166002
  H      -1.765780     -1.001457      0.856538
  H      -1.860318     -1.811548     -0.743498
  H      -1.687944      1.237766     -0.235743
  H      -2.035259      0.501865     -1.836267
  H       0.303761      1.004331     -1.777079
  H       0.148957     -0.781917     -1.696422
  H       0.550669     -0.724453      0.771547
  H       0.586642      1.081149      0.741372
  H       2.582094      1.011224     -0.773770
  H       2.534334     -0.794620     -0.756251
  H       2.930805      1.024512      1.715332
  H       2.884405     -0.775999      1.735169
  H       6.282999      1.259027      0.350100
*
