!BP86 def2-TZVPD CPCM
%maxcore 4096
%cpcm
cut_area   0.035700
cosmorscalc true
end
*xyz 0 1
  C       0.983785      0.270945     -0.196932
  C      -0.376472     -0.386490     -0.056960
  O      -1.377341      0.651059      0.031301
  H       1.030891      0.885597     -1.107995
  H       1.199126      0.913719      0.669454
  H       1.769211     -0.495945     -0.258973
  H      -0.579677     -1.036439     -0.926707
  H      -0.405219     -1.018057      0.848911
  H      -2.244303      0.215611      0.118203
*
