!BP86 def2-TZVPD
%maxcore 4096
*xyz 0 1
  O       0.000000      0.000000      0.000000
  H       0.000000      0.757000      0.586000
  H       0.000000     -0.757000      0.586000
*
