!BP86 def2-TZVPD CPCM
%maxcore 4096
%cpcm
cut_area   0.035700
cosmorscalc true
end
*xyz 0 1
  O       0.000000      0.000000      0.000000
  H       0.000000      0.757000      0.586000
  H       0.000000     -0.757000      0.586000
*
